%nprocshared=12
#p uwb97xd/gen nosymm freq temp=373.15 scf=maxcycle=500 punch=derivatives

CrSite

0 3
Cr  2.281296 	 4.089248 	 5.829530
O  3.815024 	 4.955716 	 5.484231
O  2.461980 	 2.393017 	 5.257757
O  4.907720 	 2.840014 	 4.232965
Si  3.708582 	 1.756081 	 4.440606
Si  5.109994 	 4.393341 	 4.683060
Cr  -0.877969 	 4.930778 	 1.004426
O  -1.729298 	 3.549616 	 1.790368
O  0.781435 	 4.374084 	 0.579394
O  0.611519 	 2.321194 	 2.281960
Si  1.606571 	 3.187674 	 1.320593
Si  -0.994677 	 2.326650 	 2.560914
C  -0.966207 	 6.519160 	 2.173454
C  -0.826314 	 6.211480 	 3.661784
H  -1.947660 	 6.963907 	 1.947142
H  -0.190905 	 7.212333 	 1.820638
C  0.507636 	 5.544784 	 4.002133
H  -0.925867 	 7.134619 	 4.242836
H  -1.643038 	 5.555805 	 3.975220
C  0.625495 	 5.080190 	 5.442072
H  0.633643 	 4.671427 	 3.361660
H  1.332525 	 6.216284 	 3.748988
H  0.619044 	 5.918540 	 6.155100
H  -0.187039 	 4.390329 	 5.711036
F(iso=1000000)  3.249786 	 1.179660 	 2.998675
F(iso=1000000)  4.336251 	 0.499865 	 5.239684
F(iso=1000000)  6.412266 	 4.476048 	 5.638078
F(iso=1000000)  5.454902 	 5.270797 	 3.374965
F(iso=1000000)  2.786284 	 3.824719 	 2.235409
F(iso=1000000)  2.331573 	 2.219242 	 0.265574
F(iso=1000000)  -1.608038 	 0.907818 	 2.109532
F(iso=1000000)  -1.222849 	 2.426894 	 4.162631

Cr 0
def2TZVP
****
H C O Si 0
TZVP
****
F 0
6-31G
****

