%nprocshared=8
#p wb97xd/TZVP nosymm geom=connectivity opt freq temp=373.15 punch=derivatives

Title Card Required

0 1
 C                  0.23869346    0.43341711    0.00000000
 C                  1.56460946    0.43341711    0.00000000
 H                 -0.35489154    1.35745511    0.00000000
 H                 -0.35492254   -0.49059689   -0.00002200
 H                  2.15819446   -0.49062089   -0.00001900
 H                  2.15822546    1.35743111    0.00002600

 1 2 2.0 3 1.0 4 1.0
 2 5 1.0 6 1.0
 3
 4
 5
 6

